Route #1: 1 24 26 12 18 25 6 17 1 
Route #2: 1 14 7 21 16 22 9 13 1 
Route #3: 1 1 19 15 11 28 30 3 1 
Route #4: 1 5 4 29 23 8 20 10 2 1 
Route #5: 1 27 1 

Cost 635.342
Time 0.1599


 * Another infos *

 Iterations: 31 Time: 0.1599 sec - 0.0027 min - 0.0000 horas
0.0000 h 0.0027 min
Problem dimension: 31
